# Solution for model GasLib-40
# Objective value = 1.3114802920035059e+01
loadshed[innode_1] 0
loadshed[innode_2] 0
loadshed[innode_3] 0
loadshed[innode_4] 0
loadshed[innode_5] 0
loadshed[innode_6] 0
loadshed[innode_7] 0
loadshed[innode_8] 0
loadshed[source_1] -2.0978040941980902e-01
loadshed[source_2] -0.0399386040148757
loadshed[source_3] 3.3267669498461283e-01
loadshed[sink_1] 0
loadshed[sink_2] 0
loadshed[sink_3] 0
loadshed[sink_4] 0
loadshed[sink_5] 0
loadshed[sink_6] 0
loadshed[sink_7] 0
loadshed[sink_8] 0
loadshed[sink_9] 0
loadshed[sink_10] 0
loadshed[sink_11] 0
loadshed[sink_12] 8.0192425498303543e-01
loadshed[sink_13] 0
loadshed[sink_14] 0
loadshed[sink_15] 0
loadshed[sink_16] 0
loadshed[sink_17] 0
loadshed[sink_18] 0
loadshed[sink_19] 0
loadshed[sink_20] 0
loadshed[sink_21] 0
loadshed[sink_22] 0
loadshed[sink_23] 0
loadshed[sink_24] 0
loadshed[sink_25] 0
loadshed[sink_26] 0
loadshed[sink_27] 0
loadshed[sink_28] 0
loadshed[sink_29] 0
flow[source_1,sink_3] 1.9125452097529131e+02
flow[innode_1,sink_16] 1.6354166666666970e+01
flow[innode_6,sink_13] 8.9818400091988657e+00
flow[sink_13,sink_14] -7.3723266574678021e+00
flow[sink_14,sink_10] -2.3726493324134708e+01
flow[sink_25,sink_26] 1.8140464157294304e+02
flow[sink_26,sink_9] 1.5042686374663236e+02
flow[sink_9,sink_18] 1.3407269707996571e+02
flow[sink_26,sink_4] 1.4623611159644440e+01
flow[sink_4,sink_20] -3.4438888840356981e+01
flow[sink_18,sink_6] 1.1771853041329905e+02
flow[sink_25,innode_8] -1.5854618764195493e+02
flow[sink_6,sink_7] 68.6560304132986
flow[sink_6,sink_22] 3.2708333333333641e+01
flow[sink_7,sink_24] 3.5947697079964946e+01
flow[sink_22,sink_1] 1.6354166666666970e+01
flow[sink_24,sink_21] 1.9593530413298275e+01
flow[sink_21,sink_12] 3.2393637466316090e+00
flow[sink_7,sink_5] 1.6354166666667368e+01
flow[sink_5,sink_17] 0
flow[sink_17,sink_4] -3.2708333333335005e+01
flow[sink_17,sink_8] 1.6354166666668334e+01
flow[sink_3,sink_23] 16.3541666666697
flow[sink_8,sink_20] 0
flow[sink_25,sink_20] 5.0793055507023780e+01
flow[sink_25,sink_15] -9.8987516113878229e+01
flow[sink_15,sink_29] -6.4128343430329863e+01
flow[sink_29,sink_28] 1.6354166666667879e+01
flow[sink_29,sink_2] 6.7567506016881708e+01
flow[sink_2,sink_15] 5.1213339350215037e+01
flow[sink_29,innode_7] -1.6440418278054614e+02
flow[innode_4,sink_19] 4.0326610156788917e+01
flow[sink_19,innode_3] 7.2788993324134779e+01
flow[innode_4,innode_5] 6.5170716500678367e+01
flow[sink_27,innode_5] -6.5170716500678367e+01
flow[sink_27,sink_19] 48.8165498340117
flow[sink_10,sink_11] 3.2708333333333641e+01
flow[sink_10,innode_2] 0
flow[sink_10,innode_3] -7.2788993324134779e+01
flow[innode_6,sink_25] -8.9818400091988657e+00
flow[sink_11,innode_1] 1.6354166666666970e+01
flow[sink_19,innode_2] 0
flow[source_3,innode_4] 1.0549732665746728e+02
flow[source_2,innode_7] 1.6440418278054614e+02
flow[sink_3,innode_8] 1.5854618764195493e+02
pressure[innode_1] 75.1913413415521
pressure[innode_2] 7.9379516269760160e+01
pressure[innode_3] 79.2183332865032
pressure[innode_4] 81.01325
pressure[innode_5] 8.0968422144728308e+01
pressure[innode_6] 7.4257134806813653e+01
pressure[innode_7] 81.01325
pressure[innode_8] 8.0373959198254809e+01
pressure[source_1] 81.01325
pressure[source_2] 81.01325
pressure[source_3] 81.01325
pressure[sink_1] 4.2381813745322162e+01
pressure[sink_2] 7.4904520981303264e+01
pressure[sink_3] 8.0373959198254809e+01
pressure[sink_4] 5.9621628663436937e+01
pressure[sink_5] 3.6738837682447908e+01
pressure[sink_6] 4.4482891355709533e+01
pressure[sink_7] 4.3540407709342624e+01
pressure[sink_8] 5.7754538820418553e+01
pressure[sink_9] 5.2477476397585370e+01
pressure[sink_10] 7.5343042649155649e+01
pressure[sink_11] 75.1913413415521
pressure[sink_12] 1.01325
pressure[sink_13] 7.4207619423847845e+01
pressure[sink_14] 7.4220812830384759e+01
pressure[sink_15] 74.737320715563
pressure[sink_16] 7.4169691506734424e+01
pressure[sink_17] 5.8371624015832175e+01
pressure[sink_18] 4.7626326611870439e+01
pressure[sink_19] 7.9379516269760160e+01
pressure[sink_20] 6.2148225680859049e+01
pressure[sink_21] 2.1659929121199668e+00
pressure[sink_22] 4.3445582887677176e+01
pressure[sink_23] 8.0209241186595023e+01
pressure[sink_24] 2.3829730568863727e+00
pressure[sink_25] 7.4257134806813653e+01
pressure[sink_26] 61.4809124338694
pressure[sink_27] 8.0427625620308461e+01
pressure[sink_28] 7.6320799889649308e+01
pressure[sink_29] 7.6616082163266483e+01
interdiction[source_1,sink_3] 0
interdiction[innode_1,sink_16] 0
interdiction[innode_6,sink_13] 0
interdiction[sink_13,sink_14] 0
interdiction[sink_14,sink_10] 0
interdiction[sink_25,sink_26] 0
interdiction[sink_26,sink_9] 0
interdiction[sink_9,sink_18] 0
interdiction[sink_26,sink_4] 0
interdiction[sink_4,sink_20] 0
interdiction[sink_18,sink_6] 0
interdiction[sink_25,innode_8] 0
interdiction[sink_6,sink_7] 0
interdiction[sink_6,sink_22] 0
interdiction[sink_7,sink_24] 0
interdiction[sink_22,sink_1] 0
interdiction[sink_24,sink_21] 0
interdiction[sink_21,sink_12] 0
interdiction[sink_7,sink_5] 0
interdiction[sink_5,sink_17] 1
interdiction[sink_17,sink_4] 0
interdiction[sink_17,sink_8] 0
interdiction[sink_3,sink_23] 0
interdiction[sink_8,sink_20] 1
interdiction[sink_25,sink_20] 0
interdiction[sink_25,sink_15] 0
interdiction[sink_15,sink_29] 0
interdiction[sink_29,sink_28] 0
interdiction[sink_29,sink_2] 0
interdiction[sink_2,sink_15] 0
interdiction[sink_29,innode_7] 0
interdiction[innode_4,sink_19] 0
interdiction[sink_19,innode_3] 0
interdiction[innode_4,innode_5] 0
interdiction[sink_27,innode_5] 0
interdiction[sink_27,sink_19] 0
interdiction[sink_10,sink_11] 0
interdiction[sink_10,innode_2] 1
interdiction[sink_10,innode_3] 0
interdiction[innode_6,sink_25] 0
interdiction[sink_11,innode_1] 0
interdiction[sink_19,innode_2] 0
interdiction[source_3,innode_4] 0
interdiction[source_2,innode_7] 0
interdiction[sink_3,innode_8] 0
WCcheckFlow[source_1,sink_3] 39
WCcheckFlow[innode_1,sink_16] 1
WCcheckFlow[innode_6,sink_13] 13
WCcheckFlow[sink_13,sink_14] 12
WCcheckFlow[sink_14,sink_10] 11
WCcheckFlow[sink_25,sink_26] 15
WCcheckFlow[sink_26,sink_9] 10
WCcheckFlow[sink_9,sink_18] 9
WCcheckFlow[sink_26,sink_4] 4
WCcheckFlow[sink_4,sink_20] 1
WCcheckFlow[sink_18,sink_6] 8
WCcheckFlow[sink_25,innode_8] -36
WCcheckFlow[sink_6,sink_7] 5
WCcheckFlow[sink_6,sink_22] 2
WCcheckFlow[sink_7,sink_24] 3
WCcheckFlow[sink_22,sink_1] 1
WCcheckFlow[sink_24,sink_21] 2
WCcheckFlow[sink_21,sink_12] 1
WCcheckFlow[sink_7,sink_5] 1
WCcheckFlow[sink_5,sink_17] 0
WCcheckFlow[sink_17,sink_4] -2
WCcheckFlow[sink_17,sink_8] 1
WCcheckFlow[sink_3,sink_23] 1
WCcheckFlow[sink_8,sink_20] 0
WCcheckFlow[sink_25,sink_20] 0
WCcheckFlow[sink_25,sink_15] 6
WCcheckFlow[sink_15,sink_29] 5
WCcheckFlow[sink_29,sink_28] 1
WCcheckFlow[sink_29,sink_2] 1
WCcheckFlow[sink_2,sink_15] 0
WCcheckFlow[sink_29,innode_7] 2
WCcheckFlow[innode_4,sink_19] -4
WCcheckFlow[sink_19,innode_3] -6
WCcheckFlow[innode_4,innode_5] 2
WCcheckFlow[sink_27,innode_5] -1
WCcheckFlow[sink_27,sink_19] 0
WCcheckFlow[sink_10,sink_11] 3
WCcheckFlow[sink_10,innode_2] 0
WCcheckFlow[sink_10,innode_3] 7
WCcheckFlow[innode_6,sink_25] -14
WCcheckFlow[sink_11,innode_1] 2
WCcheckFlow[sink_19,innode_2] 1
WCcheckFlow[source_3,innode_4] -1
WCcheckFlow[source_2,innode_7] -1
WCcheckFlow[sink_3,innode_8] 37
